[VALIDATOR STDOUT]
Checking plan: /home/jfan5/Safety-gen/runs/benchmark/optic/ferry_20260201_171235/ferry/optic_results/ferry-l42-c22-s42001.plan
Plan executed successfully - checking goal
Plan valid
Final value: 108 

Successful plans:
Value: 108
 /home/jfan5/Safety-gen/runs/benchmark/optic/ferry_20260201_171235/ferry/optic_results/ferry-l42-c22-s42001.plan 108
